(set-logic ALL)
(set-option :produce-models true)
(declare-sort BoundSet 0)
(declare-sort UnboundSet 0)
(declare-fun IsOutside (BoundSet) Bool)
(declare-fun IsOnPhone (BoundSet) Bool)
(declare-fun IsWearingGreenHat (BoundSet) Bool)
(assert (not (=> (exists ((b BoundSet)) (IsOutside b)) (exists ((c BoundSet)) (exists ((d BoundSet)) (and (IsOnPhone c) (IsWearingGreenHat d)))))))
(check-sat)
(get-model)